p tw 416 1344
1 33
2 34
3 35
4 36
5 37
6 38
7 39
8 40
9 41
10 42
11 43
12 44
13 45
14 46
15 47
16 48
17 49
18 50
19 51
20 52
21 53
22 54
23 55
24 56
25 57
26 58
27 59
28 60
29 61
30 62
31 63
32 64
33 74
33 99
33 103
33 104
34 115
34 138
34 140
34 141
35 65
35 66
35 67
35 68
36 83
36 111
36 112
36 113
37 103
37 119
37 128
37 131
38 81
38 87
38 114
38 117
39 69
39 77
39 81
39 82
40 129
40 134
40 136
40 137
41 92
41 100
41 105
41 106
42 90
42 107
42 109
42 110
43 69
43 70
43 71
43 72
44 99
44 100
44 101
44 102
45 67
45 132
45 134
45 135
46 86
46 89
46 90
46 91
47 73
47 86
47 87
47 88
48 73
48 74
48 75
48 76
49 96
49 114
49 115
49 116
50 70
50 79
50 107
50 108
51 65
51 118
51 119
51 120
52 97
52 112
52 132
52 133
53 77
53 78
53 79
53 80
54 105
54 128
54 129
54 130
55 66
55 75
55 121
55 124
56 93
56 111
56 125
56 127
57 89
57 96
57 97
57 98
58 94
58 101
58 142
58 144
59 109
59 121
59 122
59 123
60 78
60 83
60 84
60 85
61 71
61 118
61 125
61 126
62 136
62 140
62 142
62 143
63 92
63 93
63 94
63 95
64 84
64 122
64 138
64 139
65 66
65 67
65 68
65 118
65 119
65 120
66 67
66 68
66 75
66 121
66 124
67 68
67 132
67 134
67 135
68 145
68 146
68 147
68 148
69 70
69 71
69 72
69 77
69 81
69 82
70 71
70 72
70 79
70 107
70 108
71 72
71 118
71 125
71 126
72 149
72 150
72 151
72 152
73 74
73 75
73 76
73 86
73 87
73 88
74 75
74 76
74 99
74 103
74 104
75 76
75 121
75 124
76 153
76 154
76 155
76 156
77 78
77 79
77 80
77 81
77 82
78 79
78 80
78 83
78 84
78 85
79 80
79 107
79 108
80 157
80 158
80 159
80 160
81 82
81 87
81 114
81 117
82 149
82 157
82 161
82 162
83 84
83 85
83 111
83 112
83 113
84 85
84 122
84 138
84 139
85 158
85 163
85 164
85 165
86 87
86 88
86 89
86 90
86 91
87 88
87 114
87 117
88 153
88 166
88 167
88 168
89 90
89 91
89 96
89 97
89 98
90 91
90 107
90 109
90 110
91 166
91 169
91 170
91 171
92 93
92 94
92 95
92 100
92 105
92 106
93 94
93 95
93 111
93 125
93 127
94 95
94 101
94 142
94 144
95 172
95 173
95 174
95 175
96 97
96 98
96 114
96 115
96 116
97 98
97 112
97 132
97 133
98 169
98 176
98 177
98 178
99 100
99 101
99 102
99 103
99 104
100 101
100 102
100 105
100 106
101 102
101 142
101 144
102 179
102 180
102 181
102 182
103 104
103 119
103 128
103 131
104 154
104 179
104 183
104 184
105 106
105 128
105 129
105 130
106 172
106 180
106 185
106 186
107 108
107 109
107 110
108 150
108 159
108 187
108 188
109 110
109 121
109 122
109 123
110 170
110 187
110 189
110 190
111 112
111 113
111 125
111 127
112 113
112 132
112 133
113 163
113 191
113 192
113 193
114 115
114 116
114 117
115 116
115 138
115 140
115 141
116 176
116 194
116 195
116 196
117 161
117 167
117 194
117 197
118 119
118 120
118 125
118 126
119 120
119 128
119 131
120 145
120 198
120 199
120 200
121 122
121 123
121 124
122 123
122 138
122 139
123 189
123 201
123 202
123 203
124 146
124 155
124 201
124 204
125 126
125 127
126 151
126 198
126 205
126 206
127 173
127 191
127 205
127 207
128 129
128 130
128 131
129 130
129 134
129 136
129 137
130 185
130 208
130 209
130 210
131 183
131 199
131 208
131 211
132 133
132 134
132 135
133 177
133 192
133 212
133 213
134 135
134 136
134 137
135 147
135 212
135 214
135 215
136 137
136 140
136 142
136 143
137 209
137 214
137 216
137 217
138 139
138 140
138 141
139 164
139 202
139 218
139 219
140 141
140 142
140 143
141 195
141 218
141 220
141 221
142 143
142 144
143 216
143 220
143 222
143 223
144 174
144 181
144 222
144 224
145 146
145 147
145 148
145 198
145 199
145 200
146 147
146 148
146 155
146 201
146 204
147 148
147 212
147 214
147 215
148 225
148 226
148 227
148 228
149 150
149 151
149 152
149 157
149 161
149 162
150 151
150 152
150 159
150 187
150 188
151 152
151 198
151 205
151 206
152 229
152 230
152 231
152 232
153 154
153 155
153 156
153 166
153 167
153 168
154 155
154 156
154 179
154 183
154 184
155 156
155 201
155 204
156 233
156 234
156 235
156 236
157 158
157 159
157 160
157 161
157 162
158 159
158 160
158 163
158 164
158 165
159 160
159 187
159 188
160 237
160 238
160 239
160 240
161 162
161 167
161 194
161 197
162 229
162 237
162 241
162 242
163 164
163 165
163 191
163 192
163 193
164 165
164 202
164 218
164 219
165 238
165 243
165 244
165 245
166 167
166 168
166 169
166 170
166 171
167 168
167 194
167 197
168 233
168 246
168 247
168 248
169 170
169 171
169 176
169 177
169 178
170 171
170 187
170 189
170 190
171 246
171 249
171 250
171 251
172 173
172 174
172 175
172 180
172 185
172 186
173 174
173 175
173 191
173 205
173 207
174 175
174 181
174 222
174 224
175 252
175 253
175 254
175 255
176 177
176 178
176 194
176 195
176 196
177 178
177 192
177 212
177 213
178 249
178 256
178 257
178 258
179 180
179 181
179 182
179 183
179 184
180 181
180 182
180 185
180 186
181 182
181 222
181 224
182 259
182 260
182 261
182 262
183 184
183 199
183 208
183 211
184 234
184 259
184 263
184 264
185 186
185 208
185 209
185 210
186 252
186 260
186 265
186 266
187 188
187 189
187 190
188 230
188 239
188 267
188 268
189 190
189 201
189 202
189 203
190 250
190 267
190 269
190 270
191 192
191 193
191 205
191 207
192 193
192 212
192 213
193 243
193 271
193 272
193 273
194 195
194 196
194 197
195 196
195 218
195 220
195 221
196 256
196 274
196 275
196 276
197 241
197 247
197 274
197 277
198 199
198 200
198 205
198 206
199 200
199 208
199 211
200 225
200 278
200 279
200 280
201 202
201 203
201 204
202 203
202 218
202 219
203 269
203 281
203 282
203 283
204 226
204 235
204 281
204 284
205 206
205 207
206 231
206 278
206 285
206 286
207 253
207 271
207 285
207 287
208 209
208 210
208 211
209 210
209 214
209 216
209 217
210 265
210 288
210 289
210 290
211 263
211 279
211 288
211 291
212 213
212 214
212 215
213 257
213 272
213 292
213 293
214 215
214 216
214 217
215 227
215 292
215 294
215 295
216 217
216 220
216 222
216 223
217 289
217 294
217 296
217 297
218 219
218 220
218 221
219 244
219 282
219 298
219 299
220 221
220 222
220 223
221 275
221 298
221 300
221 301
222 223
222 224
223 296
223 300
223 302
223 303
224 254
224 261
224 302
224 304
225 226
225 227
225 228
225 278
225 279
225 280
226 227
226 228
226 235
226 281
226 284
227 228
227 292
227 294
227 295
228 305
228 306
228 307
228 308
229 230
229 231
229 232
229 237
229 241
229 242
230 231
230 232
230 239
230 267
230 268
231 232
231 278
231 285
231 286
232 309
232 310
232 311
232 312
233 234
233 235
233 236
233 246
233 247
233 248
234 235
234 236
234 259
234 263
234 264
235 236
235 281
235 284
236 313
236 314
236 315
236 316
237 238
237 239
237 240
237 241
237 242
238 239
238 240
238 243
238 244
238 245
239 240
239 267
239 268
240 317
240 318
240 319
240 320
241 242
241 247
241 274
241 277
242 309
242 317
242 321
242 322
243 244
243 245
243 271
243 272
243 273
244 245
244 282
244 298
244 299
245 318
245 323
245 324
245 325
246 247
246 248
246 249
246 250
246 251
247 248
247 274
247 277
248 313
248 326
248 327
248 328
249 250
249 251
249 256
249 257
249 258
250 251
250 267
250 269
250 270
251 326
251 329
251 330
251 331
252 253
252 254
252 255
252 260
252 265
252 266
253 254
253 255
253 271
253 285
253 287
254 255
254 261
254 302
254 304
255 332
255 333
255 334
255 335
256 257
256 258
256 274
256 275
256 276
257 258
257 272
257 292
257 293
258 329
258 336
258 337
258 338
259 260
259 261
259 262
259 263
259 264
260 261
260 262
260 265
260 266
261 262
261 302
261 304
262 339
262 340
262 341
262 342
263 264
263 279
263 288
263 291
264 314
264 339
264 343
264 344
265 266
265 288
265 289
265 290
266 332
266 340
266 345
266 346
267 268
267 269
267 270
268 310
268 319
268 347
268 348
269 270
269 281
269 282
269 283
270 330
270 347
270 349
270 350
271 272
271 273
271 285
271 287
272 273
272 292
272 293
273 323
273 351
273 352
273 353
274 275
274 276
274 277
275 276
275 298
275 300
275 301
276 336
276 354
276 355
276 356
277 321
277 327
277 354
277 357
278 279
278 280
278 285
278 286
279 280
279 288
279 291
280 305
280 358
280 359
280 360
281 282
281 283
281 284
282 283
282 298
282 299
283 349
283 361
283 362
283 363
284 306
284 315
284 361
284 364
285 286
285 287
286 311
286 358
286 365
286 366
287 333
287 351
287 365
287 367
288 289
288 290
288 291
289 290
289 294
289 296
289 297
290 345
290 368
290 369
290 370
291 343
291 359
291 368
291 371
292 293
292 294
292 295
293 337
293 352
293 372
293 373
294 295
294 296
294 297
295 307
295 372
295 374
295 375
296 297
296 300
296 302
296 303
297 369
297 374
297 376
297 377
298 299
298 300
298 301
299 324
299 362
299 378
299 379
300 301
300 302
300 303
301 355
301 378
301 380
301 381
302 303
302 304
303 376
303 380
303 382
303 383
304 334
304 341
304 382
304 384
305 306
305 307
305 308
305 358
305 359
305 360
306 307
306 308
306 315
306 361
306 364
307 308
307 372
307 374
307 375
308 414
309 310
309 311
309 312
309 317
309 321
309 322
310 311
310 312
310 319
310 347
310 348
311 312
311 358
311 365
311 366
312 406
313 314
313 315
313 316
313 326
313 327
313 328
314 315
314 316
314 339
314 343
314 344
315 316
315 361
315 364
316 401
317 318
317 319
317 320
317 321
317 322
318 319
318 320
318 323
318 324
318 325
319 320
319 347
319 348
320 396
321 322
321 327
321 354
321 357
322 410
323 324
323 325
323 351
323 352
323 353
324 325
324 362
324 378
324 379
325 389
326 327
326 328
326 329
326 330
326 331
327 328
327 354
327 357
328 402
329 330
329 331
329 336
329 337
329 338
330 331
330 347
330 349
330 350
331 403
332 333
332 334
332 335
332 340
332 345
332 346
333 334
333 335
333 351
333 365
333 367
334 335
334 341
334 382
334 384
335 386
336 337
336 338
336 354
336 355
336 356
337 338
337 352
337 372
337 373
338 392
339 340
339 341
339 342
339 343
339 344
340 341
340 342
340 345
340 346
341 342
341 382
341 384
342 405
343 344
343 359
343 368
343 371
344 416
345 346
345 368
345 369
345 370
346 408
347 348
347 349
347 350
348 399
349 350
349 361
349 362
349 363
350 407
351 352
351 353
351 365
351 367
352 353
352 372
352 373
353 413
354 355
354 356
354 357
355 356
355 378
355 380
355 381
356 400
357 411
358 359
358 360
358 365
358 366
359 360
359 368
359 371
360 398
361 362
361 363
361 364
362 363
362 378
362 379
363 390
364 394
365 366
365 367
366 388
367 393
368 369
368 370
368 371
369 370
369 374
369 376
369 377
370 395
371 412
372 373
372 374
372 375
373 397
374 375
374 376
374 377
375 404
376 377
376 380
376 382
376 383
377 409
378 379
378 380
378 381
379 385
380 381
380 382
380 383
381 415
382 383
382 384
383 387
384 391
